c graph converted from Delauney Triangulation format
c weights on edges removed (lost)
x low 0.00
p edge 100 284
n 0 1.00
n 20 1.00
n 89 1.00
n 94 1.00
n 11 1.00
n 97 1.00
n 1 1.00
n 15 1.00
n 77 1.00
n 12 1.00
n 41 1.00
n 2 1.00
n 10 1.00
n 84 1.00
n 9 1.00
n 28 1.00
n 27 1.00
n 7 1.00
n 90 1.00
n 3 1.00
n 86 1.00
n 82 1.00
n 5 1.00
n 65 1.00
n 4 1.00
n 55 1.00
n 80 1.00
n 61 1.00
n 66 1.00
n 39 1.00
n 32 1.00
n 14 1.00
n 6 1.00
n 57 1.00
n 83 1.00
n 33 1.00
n 56 1.00
n 59 1.00
n 98 1.00
n 96 1.00
n 8 1.00
n 45 1.00
n 24 1.00
n 26 1.00
n 70 1.00
n 67 1.00
n 52 1.00
n 72 1.00
n 92 1.00
n 31 1.00
n 62 1.00
n 13 1.00
n 49 1.00
n 63 1.00
n 88 1.00
n 81 1.00
n 50 1.00
n 75 1.00
n 17 1.00
n 76 1.00
n 16 1.00
n 40 1.00
n 35 1.00
n 44 1.00
n 23 1.00
n 95 1.00
n 18 1.00
n 22 1.00
n 43 1.00
n 91 1.00
n 19 1.00
n 29 1.00
n 79 1.00
n 37 1.00
n 71 1.00
n 85 1.00
n 21 1.00
n 87 1.00
n 54 1.00
n 46 1.00
n 25 1.00
n 99 1.00
n 68 1.00
n 74 1.00
n 93 1.00
n 60 1.00
n 58 1.00
n 48 1.00
n 30 1.00
n 47 1.00
n 34 1.00
n 36 1.00
n 64 1.00
n 53 1.00
n 38 1.00
n 69 1.00
n 42 1.00
n 51 1.00
n 78 1.00
n 73 1.00
e 0 20
e 0 89
e 0 94
e 0 11
e 0 97
e 1 15
e 1 77
e 1 12
e 1 41
e 2 10
e 2 84
e 2 9
e 2 94
e 2 28
e 2 27
e 2 7
e 2 90
e 3 86
e 3 82
e 3 5
e 3 65
e 4 55
e 4 80
e 4 61
e 4 66
e 4 39
e 5 32
e 5 82
e 5 14
e 5 65
e 6 57
e 6 83
e 6 33
e 6 56
e 6 59
e 7 28
e 7 90
e 7 98
e 7 96
e 8 45
e 8 24
e 8 33
e 8 26
e 8 70
e 9 39
e 9 67
e 9 52
e 9 20
e 9 72
e 9 84
e 9 94
e 10 84
e 10 92
e 10 27
e 11 89
e 11 45
e 11 70
e 11 97
e 11 31
e 12 77
e 12 62
e 12 41
e 13 41
e 13 15
e 13 49
e 13 63
e 13 88
e 13 82
e 14 32
e 14 81
e 14 50
e 14 65
e 14 75
e 15 17
e 15 76
e 15 77
e 15 49
e 15 41
e 16 40
e 16 35
e 16 44
e 16 77
e 16 62
e 17 23
e 17 95
e 17 44
e 17 76
e 17 77
e 18 22
e 18 43
e 18 91
e 18 95
e 18 23
e 19 29
e 19 79
e 19 37
e 19 71
e 20 67
e 20 85
e 20 37
e 20 45
e 20 89
e 20 94
e 21 87
e 21 22
e 21 23
e 21 54
e 22 46
e 22 80
e 22 43
e 22 87
e 22 23
e 23 95
e 23 54
e 23 76
e 24 37
e 24 45
e 24 71
e 24 33
e 25 61
e 25 99
e 25 68
e 25 74
e 26 33
e 26 70
e 26 93
e 26 60
e 27 90
e 27 92
e 28 94
e 28 97
e 28 31
e 28 98
e 28 58
e 28 75
e 29 68
e 29 74
e 29 79
e 29 48
e 29 37
e 30 47
e 30 62
e 30 40
e 30 50
e 30 43
e 31 97
e 31 58
e 31 70
e 31 34
e 32 81
e 32 63
e 32 82
e 33 57
e 33 71
e 33 56
e 33 93
e 34 70
e 34 60
e 34 93
e 34 65
e 34 58
e 35 91
e 35 95
e 35 40
e 35 44
e 36 46
e 36 64
e 36 87
e 36 53
e 36 79
e 36 71
e 37 48
e 37 85
e 37 71
e 37 45
e 38 39
e 38 66
e 38 69
e 38 52
e 39 66
e 39 61
e 39 68
e 39 67
e 39 52
e 40 43
e 40 91
e 40 62
e 41 62
e 41 63
e 41 81
e 41 47
e 42 53
e 42 49
e 42 51
e 42 88
e 42 59
e 43 80
e 43 91
e 43 50
e 44 95
e 44 77
e 45 89
e 45 70
e 46 80
e 46 78
e 46 64
e 46 87
e 47 62
e 47 81
e 47 50
e 48 68
e 48 67
e 48 85
e 49 76
e 49 54
e 49 53
e 49 88
e 50 81
e 51 57
e 51 53
e 51 83
e 51 59
e 52 69
e 52 72
e 53 87
e 53 54
e 53 71
e 53 57
e 54 87
e 54 76
e 55 80
e 55 61
e 55 99
e 55 78
e 55 74
e 56 59
e 56 93
e 56 73
e 57 71
e 57 83
e 58 75
e 58 65
e 59 83
e 59 88
e 59 86
e 59 73
e 60 93
e 60 70
e 61 99
e 61 68
e 62 77
e 63 81
e 63 82
e 64 78
e 64 74
e 64 79
e 65 86
e 65 73
e 65 93
e 65 75
e 66 69
e 67 68
e 67 85
e 68 74
e 69 72
e 71 79
e 72 84
e 72 92
e 73 86
e 73 93
e 74 99
e 74 78
e 74 79
e 75 98
e 75 96
e 78 80
e 82 88
e 82 86
e 84 92
e 86 88
e 90 96
e 91 95
e 94 97
e 96 98
